graph_generation/data/cp/rcsp/hexagonal_lattice_N_5_weights-one_windows-loose.dzn
N = 70;
M = 152;
Edge_Start = [1, 1, 2, 2, 3, 3, 3, 4, 4, 5, 5, 6, 7, 7, 7, 8, 8, 9, 9, 9, 10, 10, 11, 12, 13, 13, 14, 14, 14, 15, 15, 15, 16, 16, 16, 17, 17, 17, 18, 18, 18, 19, 19, 19, 20, 20, 20, 21, 22, 23, 23, 24, 24, 25, 25, 25, 26, 26, 27, 27, 27, 28, 28, 28, 29, 29, 29, 30, 30, 31, 32, 32, 33, 33, 34, 34, 34, 35, 35, 36, 36, 37, 37, 37, 38, 39, 39, 40, 40, 41, 41, 42, 42, 42, 43, 43, 44, 44, 45, 45, 46, 46, 47, 48, 48, 49, 49, 49, 50, 51, 51, 52, 52, 52, 53, 53, 54, 55, 55, 56, 56, 56, 57, 57, 57, 58, 58, 58, 59, 60, 60, 61, 61, 62, 62, 63, 63, 64, 64, 64, 65, 65, 66, 66, 66, 67, 67, 68, 68, 68, 69, 70];
Edge_End = [2, 12, 1, 3, 2, 4, 14, 3, 5, 4, 16, 7, 6, 8, 18, 7, 9, 8, 10, 20, 9, 11, 10, 1, 14, 25, 3, 13, 15, 14, 16, 27, 5, 15, 17, 16, 18, 29, 7, 17, 19, 18, 20, 31, 9, 19, 21, 20, 23, 22, 35, 25, 36, 13, 24, 26, 25, 27, 15, 26, 28, 27, 29, 40, 17, 28, 30, 29, 42, 19, 33, 44, 32, 34, 33, 35, 46, 23, 34, 24, 37, 36, 38, 49, 37, 40, 51, 28, 39, 42, 53, 30, 41, 43, 42, 55, 32, 45, 44, 57, 34, 47, 46, 49, 60, 37, 48, 50, 49, 39, 52, 51, 53, 64, 41, 52, 66, 43, 56, 55, 57, 68, 45, 56, 58, 57, 59, 70, 58, 48, 61, 60, 62, 61, 63, 62, 64, 52, 63, 65, 64, 66, 54, 65, 67, 66, 68, 56, 67, 69, 68, 58];
L = [1, 1, 1, 1, 1, 1, 1, 1, 1, 1, 1, 1, 1, 1, 1, 1, 1, 1, 1, 1, 1, 1, 1, 1, 1, 1, 1, 1, 1, 1, 1, 1, 1, 1, 1, 1, 1, 1, 1, 1, 1, 1, 1, 1, 1, 1, 1, 1, 1, 1, 1, 1, 1, 1, 1, 1, 1, 1, 1, 1, 1, 1, 1, 1, 1, 1, 1, 1, 1, 1, 1, 1, 1, 1, 1, 1, 1, 1, 1, 1, 1, 1, 1, 1, 1, 1, 1, 1, 1, 1, 1, 1, 1, 1, 1, 1, 1, 1, 1, 1, 1, 1, 1, 1, 1, 1, 1, 1, 1, 1, 1, 1, 1, 1, 1, 1, 1, 1, 1, 1, 1, 1, 1, 1, 1, 1, 1, 1, 1, 1, 1, 1, 1, 1, 1, 1, 1, 1, 1, 1, 1, 1, 1, 1, 1, 1, 1, 1, 1, 1, 1, 1];
T = [1, 1, 1, 1, 1, 1, 1, 1, 1, 1, 1, 1, 1, 1, 1, 1, 1, 1, 1, 1, 1, 1, 1, 1, 1, 1, 1, 1, 1, 1, 1, 1, 1, 1, 1, 1, 1, 1, 1, 1, 1, 1, 1, 1, 1, 1, 1, 1, 1, 1, 1, 1, 1, 1, 1, 1, 1, 1, 1, 1, 1, 1, 1, 1, 1, 1, 1, 1, 1, 1, 1, 1, 1, 1, 1, 1, 1, 1, 1, 1, 1, 1, 1, 1, 1, 1, 1, 1, 1, 1, 1, 1, 1, 1, 1, 1, 1, 1, 1, 1, 1, 1, 1, 1, 1, 1, 1, 1, 1, 1, 1, 1, 1, 1, 1, 1, 1, 1, 1, 1, 1, 1, 1, 1, 1, 1, 1, 1, 1, 1, 1, 1, 1, 1, 1, 1, 1, 1, 1, 1, 1, 1, 1, 1, 1, 1, 1, 1, 1, 1, 1, 1];
Lower_Bound = [1, 1, 2, 3, 4, 10, 12, 9, 10, 11, 12, 1, 5, 3, 5, 6, 6, 8, 8, 9, 10, 21, 20, 6, 5, 7, 5, 6, 7, 8, 9, 19, 17, 19, 22, 7, 9, 9, 8, 7, 10, 10, 10, 15, 15, 20, 21, 10, 9, 10, 9, 11, 11, 14, 11, 13, 15, 14, 17, 11, 15, 13, 14, 11, 12, 13, 14, 13, 15, 16];
Upper_Bound = [7, 13, 12, 7, 7, 12, 13, 12, 14, 15, 13, 11, 22, 5, 15, 9, 9, 15, 11, 13, 13, 30, 24, 17, 7, 9, 9, 16, 10, 10, 10, 22, 20, 20, 25, 10, 16, 12, 11, 11, 13, 20, 11, 23, 16, 24, 32, 12, 11, 16, 13, 27, 13, 21, 12, 27, 18, 19, 20, 14, 17, 25, 24, 20, 19, 23, 30, 17, 17, 19];
Start = 1;
End = 70;
Time = 19;
